c --- [ banner ] -------------------------------------------------------------
c 
c CaDiCaL Radically Simplified CDCL SAT Solver
c Copyright (c) 2016-2021 A. Biere, M. Fleury, N. Froleyks
c 
c Version 1.5.2 a5f15211db36c3956764e18194dd5bd63bf3b5e6
c g++ (GCC) 9.3.0 -Wall -Wextra -O3 -DNDEBUG
c Fri Oct 21 01:27:37 EDT 2022 Linux gra-login3 3.10.0-1160.66.1.el7.x86_64 x86_64
c 
c --- [ limit ] --------------------------------------------------------------
c 
c setting conflict limit to 200000 conflicts (due to '200000')
c 
c --- [ parsing input ] ------------------------------------------------------
c 
c reading DIMACS file from '33.cubes4814.adj'
c opening file to read '33.cubes4814.adj'
c found 'p cnf 6160 1595471' header
c parsed 1595471 clauses in 19.77 seconds process time
c closing file '33.cubes4814.adj'
c after reading 1457566748 bytes 1390.0 MB
c 
c --- [ options ] ------------------------------------------------------------
c 
c all options are set to their default value
c 
c --- [ solving ] ------------------------------------------------------------
c 
c time measured in process time since initialization
c 
c  seconds    reductions  redundant   irredundant
c          MB     restarts       trail       variables
c            level   conflicts       glue         remaining
c 
c * 19.77 1380  0 0   0    0    0  0% 0 1595422 2368 38%
c { 21.02 1428  0 0   0    0    0  0% 0 1595422 2368 38%
c i 21.98 1457 1202 0   0   18   16 49% 20 1595422 2367 38%
c i 21.99 1457 1203 0   0   22   17 49% 18 1595422 2364 38%
c i 22.07 1457 1204 0   0   57   47 50% 21 1595422 2363 38%
c i 22.08 1457 1202 0   0   70   59 50% 20 1595422 2362 38%
c - 25.95 1392 1179 1   0  300  237 48% 14 132775 2362 38%
c i 26.21 1363 1089 1   0  325  250 47% 14 132775 2336 38%
c i 26.23 1363 1082 1   0  327  251 47% 14 132775 2335 38%
c i 26.29 1363 937 1   3  383  288 44% 15 132775 2334 38%
c i 26.40 1363 880 1  11  411  312 43% 16 132775 2333 38%
c i 26.49 1363 854 1  14  425  322 42% 16 132775 2328 38%
c i 26.63 1363 785 1  24  466  357 41% 17 132775 2319 38%
c i 26.66 1363 740 1  28  494  366 40% 17 132775 2305 37%
c i 26.66 1363 735 1  28  497  368 39% 16 132775 2240 36%
c i 26.71 1363 723 1  29  506  376 39% 17 132775 2239 36%
c i 26.74 1363 702 1  33  522  389 39% 18 132775 2238 36%
c i 26.75 1363 692 1  35  530  395 39% 18 132775 2237 36%
c i 26.85 1363 652 1  43  565  420 38% 18 132775 2236 36%
c i 26.85 1363 646 1  45  570  419 38% 18 132775 2235 36%
c 
c  seconds     reductions  redundant   irredundant
c          MB      restarts       trail       variables
c             level   conflicts       glue         remaining
c 
c i 26.87 1363 620 1  45  594  433 38% 17 132775 2234 36%
c i 26.90 1363 588 1  45  627  454 37% 17 132775 2233 36%
c i 26.90 1363 584 1  45  631  457 37% 17 132775 2232 36%
c i 26.90 1363 581 1  45  635  460 37% 17 132775 2231 36%
c i 26.90 1363 580 1  45  636  460 37% 17 132775 2230 36%
c i 26.92 1363 541 1  45  686  499 37% 17 132775 2229 36%
c i 26.92 1363 532 1  45  697  506 37% 17 132775 2228 36%
c i 26.95 1363 473 1  45  786  576 36% 17 132775 2227 36%
c i 26.95 1363 471 1  45  790  579 36% 17 132775 2226 36%
c i 26.95 1363 453 1  45  820  601 36% 17 132775 2225 36%
c i 26.97 1363 424 1  45  881  642 35% 17 132775 2224 36%
c - 27.24 1394 385 2  45  973  516 35% 16 82227 2224 36%
c i 27.26 1394 383 2  45  978  519 35% 16 82227 2223 36%
c i 27.26 1394 381 2  45  982  521 35% 16 82227 2222 36%
c i 27.26 1394 381 2  45  984  522 35% 16 82227 2221 36%
c } 27.27 1394 375 2  45 1000  530 35% 16 82227 2221 36%
c [ 27.27 1394  0 2  45 1000  530  0% 0 82227 2221 36%
c O 27.28 1394  8 2  45 1002  532 27% 5 82227 2221 36%
c i 27.30 1394 13 2  45 1018  544 32% 10 82227 2220 36%
c i 27.34 1394 23 2  45 1211  661 32% 17 82227 2219 36%
c 
c  seconds    reductions  redundant   irredundant
c          MB     restarts       trail      variables
c            level   conflicts       glue        remaining
c 
c i 27.35 1394 23 2  45 1247  687 31% 17 82227 2218 36%
c i 27.36 1394 22 2  45 1262  693 31% 17 82227 2217 36%
c i 27.37 1394 21 2  45 1321  722 31% 17 82227 2216 36%
c i 27.38 1394 21 2  45 1331  722 31% 17 82227 2215 36%
c i 27.41 1394 20 2  45 1496  796 31% 16 82227 2214 36%
c i 27.43 1394 19 2  45 1562  820 31% 16 82227 2213 36%
c i 27.46 1394 18 2  45 1699  883 31% 15 82227 2212 36%
c i 27.50 1394 18 2  45 1822  919 31% 15 82227 2211 36%
c i 27.50 1394 18 2  45 1835  924 31% 15 82227 2210 36%
c - 27.58 1364 18 3  45 1875  687 31% 15 82190 2210 36%
c i 27.59 1364 18 3  45 1887  698 31% 15 82190 2209 36%
c i 27.82 1364 17 3  46 2718 1240 32% 14 82190 2208 36%
c ] 27.88 1364 17 3  46 3001 1453 32% 14 82190 2208 36%
c { 27.88 1364 375 3  46 3001 1453 35% 16 82190 2208 36%
c F 27.98 1394 375 3  46 3003 1455 38% 16 82184 2208 36%
c i 28.00 1394 361 3  46 3042 1480 49% 16 82184 2207 36%
c i 28.01 1394 358 3  46 3049 1480 49% 16 82184 2206 36%
c i 28.02 1394 353 3  46 3071 1495 48% 16 82184 2205 36%
c i 28.02 1394 352 3  46 3073 1496 48% 16 82184 2204 36%
c i 28.02 1394 351 3  46 3076 1498 48% 16 82184 2203 36%
c 
c  seconds     reductions  redundant   irredundant
c          MB      restarts       trail      variables
c             level   conflicts       glue        remaining
c 
c - 28.08 1395 351 4  46 3076 1188 48% 16 82170 2203 36%
c i 28.20 1395 324 4  69 3179 1267 44% 17 82170 2202 36%
c i 28.21 1395 323 4  70 3184 1271 44% 17 82170 2201 36%
c i 28.21 1395 323 4  71 3188 1274 44% 17 82170 2200 36%
c i 28.23 1395 319 4  75 3207 1286 44% 17 82170 2199 36%
c i 28.29 1395 303 4  87 3288 1356 44% 17 82170 2198 36%
c i 28.37 1395 290 4 111 3390 1433 43% 19 82170 2197 36%
c i 28.40 1395 282 4 122 3436 1470 43% 19 82170 2196 36%
c i 28.42 1395 279 4 127 3451 1483 43% 19 82170 2195 36%
c i 28.42 1395 277 4 129 3467 1493 43% 19 82170 2194 36%
c i 28.46 1395 259 4 153 3583 1571 45% 20 82170 2193 36%
c i 28.47 1395 251 4 153 3638 1601 45% 20 82170 2192 36%
c i 28.48 1395 248 4 158 3655 1611 45% 20 82170 2180 35%
c i 28.64 1395 220 4 211 3925 1808 46% 21 82170 2173 35%
c i 28.67 1395 208 4 211 4038 1874 46% 21 82170 2172 35%
c i 28.78 1395 172 4 211 4509 2153 47% 20 82170 2171 35%
c - 28.88 1395 168 5 211 4576 1536 48% 19 64849 2171 35%
c d 29.08 1395 145 5 211 5001 1709 48% 18 63747 2163 35%
c 2 29.10 1395 145 5 211 5001 2952 48% 18 63726 2064 34%
c p 29.89 1395 145 5 211 5001 9383 48% 18 63726 1931 31%
c 
c  seconds     reductions   redundant   irredundant
c          MB      restarts        trail      variables
c             level   conflicts        glue        remaining
c 
c # 30.14 1395 112 5 211 6004 10212 48% 17 63726 1931 31%
c - 30.30 1395 103 6 211 6380 2333 48% 17 36627 1931 31%
c } 30.41 1395 92 6 220 7001 2830 48% 17 36627 1931 31%
c [ 30.41 1395 17 6 220 7001 2830 88% 14 36627 1931 31%
c - 30.61 1395 18 7 221 8481 2425 72% 15 36627 1931 31%
c I 30.85 1395 19 7 222 10005 3448 42% 16 36627 1931 31%
c - 30.98 1395 23 8 223 10881 2825 42% 20 36627 1931 31%
c - 31.28 1395 26 9 225 13582 3091 43% 22 36627 1931 31%
c ] 31.44 1395 26 9 225 15002 4024 44% 22 36627 1931 31%
c { 31.44 1395 92 9 225 15002 4024 55% 17 36627 1931 31%
c 3 31.48 1395 92 9 225 15002 5043 55% 17 36617 1926 31%
c 2 31.49 1395 92 9 225 15002 5084 55% 17 36616 1926 31%
c p 31.67 1395 92 9 225 15002 9413 55% 17 36616 1926 31%
c B 31.69 1395 92 9 225 15006 9417 55% 17 36616 1926 31%
c - 32.00 1395 74 10 252 16585 3337 52% 16 36616 1926 31%
c s 32.38 1396 58 10 252 18794 4024 48% 16 35062 1926 31%
c v 32.61 1396 58 10 252 18794 4024 48% 16 35040 1926 31%
c t 32.63 1396 58 10 252 18794 4008 48% 16 35026 1926 31%
c e 32.71 1397 58 10 252 18794 3900 48% 16 32139 399  6%
c s 32.76 1397 58 10 252 18794 3900 48% 16 31715 399  6%
c 
c  seconds    reductions    redundant   irredundant
c          MB      restarts        trail      variables
c            level     conflicts       glue       remaining
c 
c - 33.02 1397 53 11 264 19887 3328 91% 15 31715 399  6%
c W 33.19 1397 49 11 268 21007 3904 91% 15 31715 399  6%
c - 33.66 1397 43 12 407 23491 3483 91% 15 31715 399  6%
c - 34.21 1397 37 13 502 27394 3554 91% 15 31715 399  6%
c F 34.32 1397 36 13 540 28008 3942 91% 15 31715 399  6%
c 3 34.61 1397 34 13 574 30003 5194 91% 14 31715 399  6%
c p 34.74 1397 34 13 574 30003 6774 91% 14 31715 399  6%
c } 34.90 1397 33 13 600 31002 7252 91% 14 31715 399  6%
c [ 34.90 1397 26 13 600 31002 7252 211% 22 31715 399  6%
c - 34.98 1397 26 14 600 31595 4306 198% 22 31715 399  6%
c B 35.57 1397 24 14 603 36010 6679 150% 20 31715 399  6%
c - 35.60 1397 24 15 603 36095 4578 149% 20 31715 399  6%
c - 36.41 1397 25 16 606 40895 5239 129% 22 31715 399  6%
c s 37.10 1397 26 16 607 44045 7253 122% 23 31021 399  6%
c v 37.26 1397 26 16 607 44045 7253 122% 23 31014 399  6%
c w 37.28 1397 26 16 607 44045 7253 122% 23 31014 399  6%
c t 37.28 1397 26 16 607 44045 7248 122% 23 31014 399  6%
c s 37.41 1397 26 16 607 44045 7247 122% 23 30383 399  6%
c W 37.80 1397 26 16 607 45012 7849 120% 23 30383 399  6%
c - 37.99 1397 27 17 608 46001 5824 118% 23 30383 399  6%
c 
c  seconds    reductions    redundant    irredundant
c          MB      restarts        trail       variables
c            level     conflicts        glue       remaining
c 
c d 38.58 1397 27 17 608 50003 8384 113% 23 29560 398  6%
c 2 38.58 1397 27 17 608 50003 8651 113% 23 29559 398  6%
c p 38.68 1397 27 17 608 50003 10038 113% 23 29559 398  6%
c - 38.86 1397 27 18 608 51401 6278 112% 23 29559 398  6%
c O 39.35 1397 27 18 609 55015 8438 109% 23 29559 398  6%
c - 39.60 1397 27 19 611 57101 6120 107% 23 29559 398  6%
c ] 40.33 1397 27 19 615 63004 9644 104% 23 29559 398  6%
c { 40.33 1397 33 19 615 63004 9644 91% 14 29559 398  6%
c - 40.39 1397 33 20 639 63101 6461 91% 14 29559 398  6%
c B 40.93 1397 30 20 733 66017 7980 91% 14 29559 398  6%
c } 41.10 1397 30 20 854 67010 8555 91% 14 29559 398  6%
c 1 41.10 1397 30 20 854 67010 8555 91% 14 29559 398  6%
c 
c --- [ writing output ] -----------------------------------------------------
c 
c writing simplified CNF to DIMACS file 'simp/33.cubes4814.adj.simp1'
c * 41.10 1397 30 20 854 67010 8555 91% 14 29559 398  6%
c opening file to write 'simp/33.cubes4814.adj.simp1'
c writing 'p cnf 6160 29559' header
c closing file 'simp/33.cubes4814.adj.simp1'
c after writing 10101798 bytes 9.6 MB
c wrote 29559 clauses in 0.07 seconds process time
c 
c --- [ writing extension ] --------------------------------------------------
c 
c writing extension stack to 'simp/33.cubes4814.adj.ext1'
c opening file to write 'simp/33.cubes4814.adj.ext1'
c closing file 'simp/33.cubes4814.adj.ext1'
c after writing 89129 bytes 0.1 MB
c wrote 4101 witnesses in 0.00 seconds process time
c 
c --- [ result ] -------------------------------------------------------------
c 
s SATISFIABLE
c 
c --- [ run-time profiling ] -------------------------------------------------
c 
c process time taken by individual solving procedures
c (percentage relative to process time for solving)
c 
c        19.77   92.67% parse
c        19.03   89.23% search
c        11.21   52.56% unstable
c         6.39   29.96% stable
c         2.30   10.77% simplify
c         1.25    5.84% lucky
c         1.20    5.61% probe
c         0.42    1.99% vivify
c         0.28    1.31% elim
c         0.22    1.05% subsume
c         0.18    0.86% walk
c         0.03    0.15% ternary
c   =================================
c        21.33   51.81% solve
c 
c last line shows process time for solving
c (percentage relative to total process time)
c 
c --- [ statistics ] ---------------------------------------------------------
c 
c chronological:              9741        14.54 %  of conflicts
c conflicts:                 67010      3141.38    per second
c decisions:                100617      4716.86    per second
c eliminated:                 1527        24.79 %  of all variables
c fixed:                      1077        17.48 %  of all variables
c learned:                   65844        98.26 %  per conflict
c learned_lits:            8877908       100.00 %  learned literals
c minimized:                     0         0.00 %  learned literals
c shrunken:                6312108        71.10 %  learned literals
c minishrunken:             428414         4.83 %  learned literals
c propagations:            4076621         0.19 M  per second
c reduced:                   31251        46.64 %  per conflict
c rephased:                     11      6091.82    interval
c restarts:                    854        78.47    interval
c stabilizing:                   3        62.68 %  of conflicts
c substituted:                  14         0.23 %  of all variables
c subsumed:                  28992         0.86 %  of all clauses
c strengthened:               5339         0.16 %  of all clauses
c ternary:                    2827         0.79 %  of resolved
c vivified:                     42         0.00 %  of all clauses
c walked:                        2     33505.00    interval
c weakened:                   3024         2.88    average size
c 
c seconds are measured in process time for solving
c 
c --- [ resources ] ----------------------------------------------------------
c 
c total process time since initialization:        41.17    seconds
c total real time since initialization:           41.24    seconds
c maximum resident set size of process:         1458.70    MB
c 
c --- [ shutting down ] ------------------------------------------------------
c 
c exit 10
WARNING! DIMACS header mismatch: wrong number of variables.
============================[ Problem Statistics ]=============================
|                                                                             |
|  Number of variables:          2548                                         |
|  Number of clauses:           29561                                         |
|  Parse time:                   0.16 s                                       |
|  Simplification time:          0.00 s                                       |
|                                                                             |
============================[ Search Statistics ]====================================================
| Conflicts |          ORIGINAL         |          LEARNT          | Num Sols |      SUBGRAPHS      |
|           |    Vars  Clauses Literals |    Limit  Clauses Lit/Cl |          | Canonical Noncanon. |
=====================================================================================================
|       175 |    2434    29636  2148358 |     2000      175     40 |        0 |        34        75 |
|       334 |    2434    29645  2148493 |     2000      334     53 |        0 |        37        84 |
|       581 |    2434    29667  2148707 |     2000      581     53 |        0 |        58       106 |
|       969 |    2434    29718  2149511 |     2000      969     59 |        0 |        75       157 |
|      1555 |    2434    29798  2151180 |     2000     1555     63 |        0 |        86       237 |
|      2536 |    2434    30020  2153803 |     3603     1539     43 |        0 |       144       459 |
|      4107 |    2434    30452  2158913 |     3603     3110     45 |        0 |       225       891 |
|      5927 |    2434    30564  2160030 |     5004     3131     43 |        0 |       244      1003 |
|      9255 |    2434    31330  2169239 |     6305     3960     33 |        0 |       508      1769 |
|     14918 |    2434    33149  2188715 |     7556     6474     34 |        0 |       932      3588 |
|     22915 |    2379    35379  2213537 |     9992     6307     24 |        0 |      1301      5819 |
=====================================================================================================
Number of solutions   : 0
Canonical subgraphs   : 1507           (34 /sec)
          order  3    : 1              (142857 /sec)
          order  4    : 1              (500000 /sec)
          order  5    : 1              (200000 /sec)
          order  6    : 1              (58824 /sec)
          order  7    : 1              (9259 /sec)
          order  8    : 1              (2137 /sec)
          order  9    : 2              (848 /sec)
          order 10    : 5              (390 /sec)
          order 11    : 9              (252 /sec)
          order 12    : 19             (183 /sec)
          order 13    : 10             (133 /sec)
          order 14    : 64             (94 /sec)
          order 15    : 170            (56 /sec)
          order 16    : 881            (33 /sec)
          order 17    : 224            (25 /sec)
          order 18    : 70             (22 /sec)
          order 19    : 38             (23 /sec)
          order 20    : 7              (26 /sec)
          order 21    : 2              (25 /sec)
          order 22    : 0              (-nan /sec)
Noncanonical subgraphs: 6870           (251 /sec)
          order  3    : 0              (-nan /sec)
          order  4    : 0              (-nan /sec)
          order  5    : 0              (-nan /sec)
          order  6    : 0              (-nan /sec)
          order  7    : 0              (-nan /sec)
          order  8    : 0              (-nan /sec)
          order  9    : 0              (-nan /sec)
          order 10    : 0              (-nan /sec)
          order 11    : 0              (-nan /sec)
          order 12    : 0              (-nan /sec)
          order 13    : 25             (25961 /sec)
          order 14    : 330            (7712 /sec)
          order 15    : 528            (2003 /sec)
          order 16    : 5032           (308 /sec)
          order 17    : 725            (107 /sec)
          order 18    : 228            (60 /sec)
          order 19    : 0              (-nan /sec)
          order 20    : 0              (-nan /sec)
          order 21    : 0              (-nan /sec)
Canonicity checking   : 44.8031 s
Noncanonicity checking: 27.3263 s
Total canonicity time : 72.1294 s
database reductions   : 7
restarts              : 112
conflicts             : 30790          (404 /sec)
decisions             : 51670          (0.00 % random) (677 /sec)
propagations          : 980644         (12855 /sec)
conflict literals     : 1456338        (56.70 % deleted)
actual reward         : 0.352478
Memory used           : 36.00 MB
CPU time              : 76.2868 s

UNSATISFIABLE
